37998
1 0 1 0 1 1 0 1 1 1 1 1 1 0 0 1 0 0 0 0 0 0 1 1 0 1 0 1 0 1 
7 29 22 27 2 12 2 27 22 11 4 29 10 23 29 7 22 10 22 22 7 22 23 22 10 22 27 9 29 15 11 9 4 22 27 29 8 8 15 15 7 9 12 29 8 4 5 15 29 10 22 22 0 15 8 12 25 9 7 7 29 0 7 8 8 11 0 9 11 25 7 12 11 9 23 23 9 23 8 22 10 5 9 25 4 23 29 2 27 25 11 29 25 25 0 29 11 12 0 29 11 15 25 7 4 0 4 27 22 5 9 4 27 12 12 8 27 7 22 8 9 7 11 4 9 22 2 12 9 0 5 22 25 10 23 8 29 29 22 23 12 27 12 25 25 5 15 15 27 25 15 0 23 0 8 11 2 15 5 5 23 27 10 2 10 27 23 4 29 5 23 8 29 9 4 2 0 10 29 10 5 15 2 29 25 8 11 10 22 2 2 22 11 4 7 12 7 5 10 29 